2 10
250 294 
0 50 59 82 77 65 33 2
1 44 51 83 86 43 12 2
2 69 73 54 52 80 55 1
3 83 90 42 37 7 75 1
4 10 19 77 70 85 95 2
5 35 33 90 87 35 33 2
6 22 20 43 47 79 87 2
7 82 91 28 37 93 57 1
8 1 4 88 79 98 15 2
9 68 61 19 16 19 78 1
